WARNING: for repeatability, setting FPU to use double precision
============================[ Problem Statistics ]=============================
|                                                                             |
|  Number of variables:           100                                         |
|  Number of clauses:             449                                         |
|  Parse time:                   0.00 s                                       |
|  Simplification time:          0.00 s                                       |
|                                                                             |
============================[ Search Statistics ]==============================
| Conflicts |          ORIGINAL         |          LEARNT          | Progress |
|           |    Vars  Clauses Literals |    Limit  Clauses Lit/Cl |          |
===============================================================================
===============================================================================
restarts              : 1
conflicts             : 68             (13367 /sec)
decisions             : 93             (0.00 % random) (18282 /sec)
propagations          : 1613           (317083 /sec)
conflict literals     : 372            (22.82 % deleted)
Memory used           : 13.00 MB
CPU time              : 0.005087 s

SATISFIABLE
